lpmln2cl
Clingo executed with command:
clingo /home/apradhan/proj/fact_check_kb/out.txt /usr/local/share/lpmln/marginal-prob-script.py 0 --opt-mode=enum -c issoft=true --warn=no-atom-undefined -c quiet=true --quiet -c q=founder dataset/founder/evidence/local/amie/top15//1_unique.txt 
clingo version 4.5.4
Reading from ...me/apradhan/proj/fact_check_kb/out.txt ...
Solving...






OPTIMUM FOUND

Models       : 4     
  Optimum    : yes
Calls        : 1
Time         : 0.206s (Solving: 0.00s 1st Model: 0.00s Unsat: 0.00s)
CPU Time     : 0.200s
